c Pigeonhole principle formula for 2 pigeons and 2 holes
c Generated with `cnfgen`
c (C) 2012-2019 Massimo Lauria <massimo.lauria@uniroma1.it>
c https://massimolauria.net/cnfgen
c
c COMMAND LINE: cnfgen --output php22.cnf php 2 2
c
p cnf 4 4
1 2 0
3 4 0
-1 -3 0
-2 -4 0
